<number of tasks>
50

<cycle time>
1000

<order strength>
0.197


<task times>
1 33
2 442
3 94
4 256
5 30
6 172
7 292
8 425
9 66
10 53
11 264
12 83
13 150
14 105
15 432
16 128
17 335
18 185
19 171
20 69
21 104
22 92
23 152
24 49
25 109
26 110
27 240
28 109
29 143
30 83
31 482
32 287
33 169
34 26
35 495
36 158
37 480
38 179
39 327
40 280
41 374
42 44
43 224
44 578
45 297
46 188
47 193
48 89
49 259
50 424

<precedence relations>
1,16
2,12
3,7
3,8
3,10
4,11
5,6
5,9
6,20
7,20
9,13
9,18
9,19
11,14
11,16
11,17
12,15
13,20
14,20
15,21
15,22
15,24
18,23
18,25
20,26
20,27
20,28
20,29
20,30
20,49
21,32
22,33
23,31
24,34
26,36
27,39
31,35
32,37
33,38
35,42
36,41
37,40
38,43
38,44
40,45
41,46
42,49
42,50
43,47
44,48

<end>
